(declare-fun c () String)
(declare-fun g () String)
(declare-fun f () String)
(declare-fun a () String)
(declare-fun h () String)
(assert (= (str.++ "g" a "e") (str.++ "bac" c "d")))
(assert (= "h" (str.++ "h" f g)))
(assert (= "bc" (str.++ "a" h "hg")))

(check-sat)
